n = 75;
m = 5;
p = [30, 25, 10, 7, 3];
v = [0.1, 0.3, 0.5, 0.7, 0.9];
c = array2d(1..5, 1..5, [
1.0, 0.0, 1.5, 2.5, 3.5,
2.0, 1.5, 0.0, 1.0, 2.0,
3.0, 2.5, 1.0, 0.0, 1.5,
4.0, 3.5, 2.0, 1.5, 0.0,
0.5, 0.5, 0.5, 0.5, 0.5
]);
ce = [0.0, 1.0, 2.0, 3.0, 4.0];
ct = 150.0;
maxM = 100;
